n=8;
hearts=20;
clubs=37;
spades=39;
diamonds=29;
blocked=6;
m=array2d(1..n, 1..n,[
	4,_,_,_,2,2,_,3,
	_,_,_,_,5,1,2,4,
	1,_,_,_,_,5,3,_,
	_,_,_,_,2,5,2,_,
	_,5,_,1,_,_,4,1,
	_,_,4,_,_,5,3,2,
	_,_,_,_,_,_,3,_,
	_,_,3,5,_,_,_,_
]);
